% demand
num_movements = 25;
loading_factor = [1750, 1600, 1300, 1950, 1900, 1350, 1950, 1700, 1550, 1400, 1600, 1550, 900, 1550, 1950, 1000, 1650, 1100, 1300, 2000, 950, 1350, 2000, 1350, 1050];
pickup_time = [0, 0, 0, 0, 2, 2, 2, 2, 4, 4, 5, 6, 6, 6, 8, 8, 8, 8, 9, 10, 11, 12, 12, 12, 12];
delivery_time = [2, 1, 2, 2, 4, 3, 4, 4, 5, 7, 8, 8, 7, 8, 12, 10, 10, 13, 10, 12, 12, 13, 13, 13, 13];

% transporter definition
total_capacity = 7000;
num_decks = 3;
capacity = [3000, 1000, 3000];

% ways out of decks
num_ways_out = 1;
paths_out = array3d(decks, ways_out, decks, [
% ways out of deck d1
2, 3, 0, 

% ways out of deck d2
3, 0, 0, 

% ways out of deck d3
0, 0, 0,	

]);

